75 1346 5
0 1 1
0 3 1
0 5 1
0 6 1
0 7 1
0 8 1
0 10 1
0 11 1
0 14 1
0 17 1
0 19 1
0 20 1
0 23 1
0 24 1
0 25 1
0 26 1
0 27 1
0 29 1
0 32 1
0 35 1
0 37 1
0 42 1
0 45 1
0 46 1
0 50 1
0 51 1
0 56 1
0 60 1
0 61 1
0 63 1
0 65 1
0 70 1
0 71 1
0 72 1
0 73 1
1 2 1
1 3 1
1 4 1
1 5 1
1 7 1
1 12 1
1 13 1
1 14 1
1 15 1
1 22 1
1 23 1
1 24 1
1 25 1
1 26 1
1 27 1
1 32 1
1 33 1
1 35 1
1 37 1
1 41 1
1 45 1
1 48 1
1 52 1
1 53 1
1 57 1
1 58 1
1 61 1
1 62 1
1 64 1
1 66 1
1 68 1
1 69 1
2 5 1
2 7 1
2 10 1
2 13 1
2 14 1
2 15 1
2 18 1
2 20 1
2 21 1
2 23 1
2 27 1
2 28 1
2 29 1
2 30 1
2 31 1
2 32 1
2 33 1
2 37 1
2 38 1
2 41 1
2 45 1
2 47 1
2 49 1
2 55 1
2 57 1
2 61 1
2 63 1
2 65 1
2 67 1
2 68 1
2 70 1
2 71 1
2 73 1
3 4 1
3 6 1
3 7 1
3 9 1
3 13 1
3 14 1
3 15 1
3 16 1
3 17 1
3 19 1
3 22 1
3 24 1
3 27 1
3 30 1
3 32 1
3 33 1
3 34 1
3 39 1
3 41 1
3 43 1
3 44 1
3 51 1
3 52 1
3 55 1
3 56 1
3 58 1
3 59 1
3 60 1
3 61 1
3 64 1
3 66 1
3 69 1
3 70 1
4 6 1
4 7 1
4 8 1
4 10 1
4 11 1
4 12 1
4 16 1
4 17 1
4 20 1
4 23 1
4 24 1
4 26 1
4 28 1
4 32 1
4 33 1
4 35 1
4 36 1
4 37 1
4 39 1
4 40 1
4 41 1
4 44 1
4 48 1
4 53 1
4 54 1
4 58 1
4 59 1
4 61 1
4 63 1
4 64 1
4 66 1
4 67 1
4 68 1
4 71 1
4 72 1
4 73 1
4 74 1
5 6 1
5 9 1
5 13 1
5 14 1
5 18 1
5 20 1
5 26 1
5 28 1
5 29 1
5 31 1
5 32 1
5 37 1
5 39 1
5 42 1
5 43 1
5 46 1
5 47 1
5 48 1
5 50 1
5 51 1
5 55 1
5 56 1
5 57 1
5 60 1
5 62 1
5 66 1
5 67 1
5 68 1
5 70 1
5 71 1
5 72 1
6 9 1
6 10 1
6 11 1
6 13 1
6 14 1
6 17 1
6 19 1
6 20 1
6 21 1
6 22 1
6 23 1
6 24 1
6 26 1
6 27 1
6 28 1
6 29 1
6 30 1
6 32 1
6 35 1
6 37 1
6 43 1
6 44 1
6 45 1
6 47 1
6 50 1
6 52 1
6 53 1
6 54 1
6 55 1
6 57 1
6 60 1
6 61 1
6 65 1
6 66 1
6 68 1
6 69 1
6 70 1
6 74 1
7 8 1
7 13 1
7 14 1
7 15 1
7 16 1
7 17 1
7 18 1
7 20 1
7 21 1
7 23 1
7 26 1
7 28 1
7 30 1
7 31 1
7 35 1
7 36 1
7 39 1
7 40 1
7 41 1
7 42 1
7 47 1
7 48 1
7 51 1
7 52 1
7 53 1
7 54 1
7 55 1
7 56 1
7 59 1
7 60 1
7 62 1
7 64 1
7 65 1
7 66 1
8 13 1
8 14 1
8 15 1
8 17 1
8 19 1
8 21 1
8 22 1
8 25 1
8 26 1
8 28 1
8 33 1
8 38 1
8 39 1
8 40 1
8 43 1
8 45 1
8 46 1
8 48 1
8 50 1
8 52 1
8 53 1
8 55 1
8 56 1
8 57 1
8 60 1
8 63 1
8 67 1
8 71 1
8 72 1
8 74 1
9 11 1
9 12 1
9 19 1
9 20 1
9 23 1
9 26 1
9 28 1
9 30 1
9 34 1
9 40 1
9 41 1
9 43 1
9 44 1
9 47 1
9 50 1
9 51 1
9 52 1
9 53 1
9 54 1
9 57 1
9 60 1
9 61 1
9 62 1
9 65 1
9 68 1
9 69 1
9 74 1
10 11 1
10 16 1
10 21 1
10 24 1
10 26 1
10 30 1
10 32 1
10 35 1
10 37 1
10 44 1
10 45 1
10 47 1
10 48 1
10 50 1
10 51 1
10 54 1
10 56 1
10 60 1
10 61 1
10 63 1
10 64 1
10 65 1
10 66 1
10 69 1
10 70 1
10 71 1
11 12 1
11 13 1
11 14 1
11 17 1
11 22 1
11 24 1
11 30 1
11 31 1
11 33 1
11 34 1
11 35 1
11 39 1
11 40 1
11 42 1
11 43 1
11 46 1
11 47 1
11 48 1
11 49 1
11 50 1
11 51 1
11 53 1
11 54 1
11 55 1
11 56 1
11 61 1
11 62 1
11 63 1
11 68 1
11 69 1
11 72 1
12 14 1
12 15 1
12 16 1
12 19 1
12 21 1
12 22 1
12 23 1
12 24 1
12 25 1
12 26 1
12 27 1
12 29 1
12 35 1
12 38 1
12 39 1
12 41 1
12 44 1
12 49 1
12 50 1
12 57 1
12 58 1
12 60 1
12 65 1
13 18 1
13 19 1
13 20 1
13 21 1
13 22 1
13 23 1
13 25 1
13 26 1
13 27 1
13 31 1
13 35 1
13 37 1
13 41 1
13 42 1
13 43 1
13 46 1
13 48 1
13 51 1
13 52 1
13 53 1
13 54 1
13 56 1
13 57 1
13 58 1
13 61 1
13 62 1
13 64 1
13 67 1
13 68 1
13 73 1
13 74 1
14 21 1
14 24 1
14 29 1
14 30 1
14 31 1
14 32 1
14 33 1
14 34 1
14 40 1
14 41 1
14 42 1
14 43 1
14 45 1
14 48 1
14 50 1
14 51 1
14 52 1
14 53 1
14 54 1
14 56 1
14 57 1
14 61 1
14 63 1
14 66 1
14 70 1
14 73 1
15 16 1
15 20 1
15 21 1
15 22 1
15 23 1
15 24 1
15 26 1
15 27 1
15 28 1
15 29 1
15 32 1
15 34 1
15 39 1
15 40 1
15 41 1
15 43 1
15 44 1
15 45 1
15 47 1
15 50 1
15 51 1
15 53 1
15 57 1
15 58 1
15 61 1
15 62 1
15 67 1
15 70 1
15 71 1
15 74 1
16 23 1
16 25 1
16 27 1
16 30 1
16 32 1
16 33 1
16 37 1
16 38 1
16 40 1
16 41 1
16 42 1
16 43 1
16 45 1
16 46 1
16 50 1
16 52 1
16 54 1
16 55 1
16 56 1
16 59 1
16 63 1
16 64 1
16 65 1
16 66 1
16 69 1
16 70 1
16 74 1
17 21 1
17 23 1
17 25 1
17 26 1
17 27 1
17 34 1
17 36 1
17 39 1
17 40 1
17 41 1
17 42 1
17 43 1
17 44 1
17 45 1
17 49 1
17 51 1
17 53 1
17 54 1
17 55 1
17 58 1
17 63 1
17 65 1
17 67 1
17 69 1
17 70 1
17 72 1
17 73 1
18 21 1
18 23 1
18 25 1
18 26 1
18 27 1
18 29 1
18 30 1
18 32 1
18 33 1
18 36 1
18 38 1
18 46 1
18 48 1
18 49 1
18 52 1
18 54 1
18 56 1
18 57 1
18 58 1
18 65 1
18 66 1
18 68 1
18 69 1
18 70 1
19 24 1
19 26 1
19 27 1
19 29 1
19 34 1
19 35 1
19 42 1
19 43 1
19 45 1
19 46 1
19 47 1
19 48 1
19 51 1
19 53 1
19 54 1
19 56 1
19 58 1
19 59 1
19 60 1
19 61 1
19 62 1
19 64 1
19 66 1
19 67 1
19 69 1
19 70 1
19 72 1
20 22 1
20 23 1
20 24 1
20 27 1
20 30 1
20 32 1
20 33 1
20 34 1
20 37 1
20 39 1
20 43 1
20 44 1
20 50 1
20 52 1
20 53 1
20 54 1
20 55 1
20 56 1
20 57 1
20 58 1
20 60 1
20 62 1
20 63 1
20 65 1
20 68 1
20 69 1
20 70 1
20 71 1
20 73 1
20 74 1
21 22 1
21 25 1
21 27 1
21 29 1
21 31 1
21 33 1
21 34 1
21 35 1
21 36 1
21 37 1
21 38 1
21 39 1
21 40 1
21 41 1
21 42 1
21 44 1
21 47 1
21 48 1
21 49 1
21 51 1
21 55 1
21 60 1
21 61 1
21 64 1
21 66 1
21 67 1
21 69 1
21 70 1
21 72 1
21 73 1
22 24 1
22 25 1
22 26 1
22 27 1
22 29 1
22 30 1
22 33 1
22 34 1
22 36 1
22 37 1
22 38 1
22 40 1
22 41 1
22 42 1
22 45 1
22 46 1
22 47 1
22 48 1
22 49 1
22 50 1
22 56 1
22 57 1
22 59 1
22 62 1
22 64 1
22 65 1
22 66 1
22 70 1
22 71 1
22 72 1
22 73 1
23 24 1
23 26 1
23 28 1
23 30 1
23 31 1
23 32 1
23 33 1
23 34 1
23 40 1
23 45 1
23 46 1
23 49 1
23 51 1
23 54 1
23 57 1
23 58 1
23 61 1
23 62 1
23 64 1
23 68 1
23 69 1
23 70 1
23 73 1
24 26 1
24 28 1
24 29 1
24 31 1
24 34 1
24 35 1
24 37 1
24 44 1
24 46 1
24 48 1
24 51 1
24 54 1
24 56 1
24 58 1
24 59 1
24 60 1
24 63 1
24 65 1
24 67 1
24 70 1
24 71 1
25 26 1
25 28 1
25 32 1
25 34 1
25 36 1
25 38 1
25 39 1
25 40 1
25 42 1
25 44 1
25 45 1
25 46 1
25 47 1
25 49 1
25 50 1
25 51 1
25 53 1
25 56 1
25 57 1
25 58 1
25 60 1
25 65 1
25 68 1
25 69 1
25 71 1
26 30 1
26 31 1
26 33 1
26 34 1
26 37 1
26 38 1
26 39 1
26 41 1
26 46 1
26 47 1
26 49 1
26 50 1
26 51 1
26 52 1
26 53 1
26 55 1
26 56 1
26 58 1
26 62 1
26 66 1
26 67 1
26 69 1
26 70 1
26 71 1
26 73 1
26 74 1
27 28 1
27 29 1
27 30 1
27 31 1
27 33 1
27 35 1
27 37 1
27 38 1
27 41 1
27 42 1
27 44 1
27 45 1
27 46 1
27 52 1
27 55 1
27 58 1
27 59 1
27 60 1
27 61 1
27 62 1
27 64 1
27 66 1
27 68 1
27 69 1
27 73 1
27 74 1
28 31 1
28 34 1
28 39 1
28 40 1
28 44 1
28 45 1
28 52 1
28 53 1
28 54 1
28 55 1
28 56 1
28 57 1
28 62 1
28 63 1
28 65 1
28 67 1
28 68 1
28 69 1
28 70 1
28 71 1
29 30 1
29 31 1
29 33 1
29 40 1
29 41 1
29 42 1
29 43 1
29 44 1
29 46 1
29 47 1
29 48 1
29 50 1
29 52 1
29 53 1
29 54 1
29 55 1
29 59 1
29 61 1
29 63 1
29 69 1
29 70 1
29 71 1
29 73 1
30 31 1
30 36 1
30 39 1
30 42 1
30 44 1
30 49 1
30 50 1
30 51 1
30 52 1
30 53 1
30 55 1
30 57 1
30 58 1
30 63 1
30 68 1
30 71 1
30 72 1
31 32 1
31 33 1
31 34 1
31 35 1
31 37 1
31 38 1
31 39 1
31 40 1
31 43 1
31 45 1
31 55 1
31 57 1
31 58 1
31 59 1
31 61 1
31 62 1
31 65 1
31 68 1
31 69 1
31 70 1
31 71 1
31 73 1
32 33 1
32 34 1
32 35 1
32 38 1
32 39 1
32 40 1
32 41 1
32 43 1
32 45 1
32 47 1
32 48 1
32 49 1
32 53 1
32 54 1
32 58 1
32 66 1
32 68 1
32 71 1
32 72 1
32 73 1
32 74 1
33 36 1
33 37 1
33 39 1
33 40 1
33 42 1
33 45 1
33 49 1
33 51 1
33 54 1
33 55 1
33 59 1
33 61 1
33 63 1
33 65 1
33 66 1
33 69 1
33 73 1
34 35 1
34 37 1
34 42 1
34 44 1
34 46 1
34 47 1
34 53 1
34 55 1
34 57 1
34 58 1
34 59 1
34 60 1
34 62 1
34 64 1
34 65 1
34 67 1
34 69 1
34 70 1
35 36 1
35 37 1
35 40 1
35 42 1
35 45 1
35 46 1
35 47 1
35 48 1
35 49 1
35 51 1
35 56 1
35 57 1
35 58 1
35 59 1
35 62 1
35 65 1
35 68 1
35 70 1
35 71 1
35 73 1
35 74 1
36 37 1
36 38 1
36 39 1
36 40 1
36 41 1
36 42 1
36 45 1
36 47 1
36 48 1
36 49 1
36 51 1
36 54 1
36 56 1
36 57 1
36 58 1
36 59 1
36 61 1
36 62 1
36 64 1
36 66 1
36 67 1
36 68 1
36 69 1
36 71 1
36 73 1
37 38 1
37 39 1
37 40 1
37 42 1
37 44 1
37 45 1
37 46 1
37 47 1
37 48 1
37 51 1
37 52 1
37 53 1
37 54 1
37 57 1
37 58 1
37 60 1
37 62 1
37 64 1
37 67 1
37 68 1
37 71 1
37 73 1
38 40 1
38 42 1
38 44 1
38 47 1
38 48 1
38 50 1
38 52 1
38 54 1
38 55 1
38 57 1
38 59 1
38 62 1
38 63 1
38 66 1
38 67 1
38 68 1
38 69 1
38 71 1
38 72 1
38 73 1
39 40 1
39 41 1
39 42 1
39 43 1
39 44 1
39 46 1
39 47 1
39 50 1
39 51 1
39 53 1
39 54 1
39 55 1
39 56 1
39 58 1
39 59 1
39 62 1
39 65 1
39 66 1
39 67 1
39 68 1
39 69 1
39 70 1
39 74 1
40 42 1
40 45 1
40 48 1
40 50 1
40 56 1
40 58 1
40 59 1
40 65 1
40 68 1
40 69 1
40 70 1
40 73 1
41 44 1
41 45 1
41 46 1
41 50 1
41 51 1
41 53 1
41 54 1
41 55 1
41 56 1
41 58 1
41 60 1
41 61 1
41 62 1
41 63 1
41 66 1
41 67 1
41 68 1
41 69 1
41 70 1
41 72 1
42 45 1
42 50 1
42 54 1
42 55 1
42 57 1
42 58 1
42 59 1
42 63 1
42 64 1
42 65 1
42 67 1
42 73 1
42 74 1
43 45 1
43 46 1
43 47 1
43 48 1
43 49 1
43 52 1
43 54 1
43 55 1
43 56 1
43 58 1
43 61 1
43 64 1
43 65 1
43 66 1
43 69 1
43 70 1
44 46 1
44 49 1
44 50 1
44 52 1
44 53 1
44 54 1
44 56 1
44 57 1
44 59 1
44 61 1
44 62 1
44 63 1
44 66 1
44 68 1
44 71 1
44 72 1
44 73 1
44 74 1
45 47 1
45 48 1
45 49 1
45 53 1
45 54 1
45 55 1
45 57 1
45 58 1
45 61 1
45 62 1
45 63 1
45 68 1
45 69 1
45 72 1
45 74 1
46 48 1
46 49 1
46 53 1
46 54 1
46 55 1
46 58 1
46 59 1
46 61 1
46 63 1
46 68 1
46 69 1
46 72 1
47 48 1
47 49 1
47 51 1
47 55 1
47 56 1
47 57 1
47 60 1
47 61 1
47 65 1
47 68 1
47 72 1
48 49 1
48 51 1
48 53 1
48 57 1
48 58 1
48 59 1
48 61 1
48 63 1
48 64 1
48 65 1
48 66 1
48 67 1
48 69 1
48 73 1
49 53 1
49 54 1
49 57 1
49 58 1
49 59 1
49 61 1
49 62 1
49 63 1
49 64 1
49 67 1
49 70 1
49 71 1
49 72 1
49 73 1
50 54 1
50 55 1
50 56 1
50 58 1
50 59 1
50 60 1
50 62 1
50 65 1
50 67 1
50 70 1
50 73 1
50 74 1
51 52 1
51 58 1
51 64 1
51 65 1
51 67 1
51 69 1
51 70 1
51 71 1
51 74 1
52 55 1
52 56 1
52 59 1
52 61 1
52 62 1
52 63 1
52 64 1
52 65 1
52 68 1
52 69 1
52 73 1
53 54 1
53 56 1
53 57 1
53 59 1
53 61 1
53 64 1
53 65 1
53 67 1
53 68 1
53 71 1
53 72 1
54 57 1
54 58 1
54 59 1
54 62 1
54 66 1
54 69 1
54 70 1
54 71 1
55 57 1
55 65 1
55 66 1
55 68 1
55 70 1
55 72 1
55 74 1
56 59 1
56 61 1
56 63 1
56 66 1
56 67 1
56 68 1
56 70 1
56 73 1
56 74 1
57 59 1
57 71 1
57 74 1
58 60 1
58 61 1
58 62 1
58 63 1
58 65 1
58 66 1
58 69 1
58 72 1
58 73 1
59 60 1
59 61 1
59 64 1
59 65 1
59 67 1
59 71 1
59 72 1
60 61 1
60 62 1
60 65 1
60 67 1
60 68 1
60 73 1
61 64 1
61 65 1
61 67 1
61 69 1
61 72 1
62 63 1
62 65 1
62 68 1
62 70 1
62 73 1
63 66 1
63 67 1
63 68 1
63 70 1
63 71 1
63 72 1
63 73 1
64 67 1
64 69 1
64 71 1
65 66 1
65 67 1
65 69 1
65 70 1
65 71 1
65 72 1
65 74 1
66 69 1
66 71 1
66 72 1
66 73 1
67 68 1
67 69 1
67 71 1
67 74 1
68 69 1
68 72 1
69 70 1
69 72 1
69 73 1
69 74 1
70 72 1
70 74 1
71 73 1
71 74 1
72 74 1
15 27 45 51 73